problem_generation/data/GISP/train/er_n=61_m=1142_p=0.60_SET2_setparam=100.00_alpha=0.50_522.lp
maximize
OBJ:100x0 + 100x1 + 100x2 + 100x3 + 100x4 + 100x5 + 100x6 + 100x7 + 100x8 + 100x9 + 100x10 + 100x11 + 100x12 + 100x13 + 100x14 + 100x15 + 100x16 + 100x17 + 100x18 + 100x19 + 100x20 + 100x21 + 100x22 + 100x23 + 100x24 + 100x25 + 100x26 + 100x27 + 100x28 + 100x29 + 100x30 + 100x31 + 100x32 + 100x33 + 100x34 + 100x35 + 100x36 + 100x37 + 100x38 + 100x39 + 100x40 + 100x41 + 100x42 + 100x43 + 100x44 + 100x45 + 100x46 + 100x47 + 100x48 + 100x49 + 100x50 + 100x51 + 100x52 + 100x53 + 100x54 + 100x55 + 100x56 + 100x57 + 100x58 + 100x59 + 100x60 - y55_57 - y7_17 - y36_53 - y18_26 - y15_39 - y17_58 - y18_35 - y18_44 - y40_41 - y11_14 - y21_46 - y6_57 - y33_38 - y41_51 - y25_34 - y2_41 - y44_56 - y25_52 - y22_28 - y14_24 - y3_42 - y7_12 - y7_30 - y9_49 - y6_34 - y29_54 - y40_54 - y10_31 - y25_29 - y2_36 - y2_45 - y22_23 - y3_19 - y13_60 - y35_60 - y14_37 - y28_39 - y36_52 - y17_48 - y9_44 - y5_55 - y28_57 - y9_53 - y6_38 - y29_40 - y48_53 - y21_36 - y54_60 - y10_35 - y10_44 - y25_42 - y32_41 - y51_54 - y22_27 - y35_46 - y3_23 - y32_59 - y43_59 - y1_53 - y13_55 - y36_38 - y28_34 - y7_11 - y9_30 - y17_43 - y9_39 - y5_50 - y6_15 - y17_52 - y9_48 - y50_58 - y10_12 - y2_17 - y54_55 - y2_26 - y23_58 - y13_32 - y3_9 - y13_41 - y14_18 - y16_37 - y1_48 - y13_59 - y24_59 - y16_55 - y5_27 - y9_25 - y17_38 - y36_51 - y47_51 - y5_45 - y17_47 - y28_47 - y9_52 - y27_60 - y6_37 - y6_46 - y20_39 - y39_52 - y20_48 - y10_25 - y12_44 - y20_57 - y31_57 - y12_53 - y23_53 - y2_30 - y1_34 - y13_36 - y43_49 - y16_32 - y35_45 - y24_54 - y35_54 - y5_40 - y17_42 - y9_47 - y27_55 - y21_30 - y8_60 - y30_60 - y0_56 - y2_16 - y12_48 - y12_57 - y23_57 - y16_18 - y13_31 - y24_31 - y1_38 - y24_40 - y16_36 - y35_58 - y46_55 - y49_60 - y27_41 - y27_50 - y8_46 - y19_46 - y42_48 - y42_57 - y0_60 - y11_60 - y12_25 - y23_25 - y31_38 - y39_42 - y23_34 - y4_30 - y12_43 - y1_15 - y24_26 - y4_57 - y32_39 - y34_58 - y13_35 - y13_44 - y35_44 - y1_51 - y16_49 - y5_21 - y15_53 - y38_55 - y5_30 - y19_32 - y27_45 - y27_54 - y11_37 - y0_46 - y11_46 - y8_59 - y12_20 - y23_29 - y12_38 - y23_38 - y31_51 - y23_47 - y4_43 - y12_56 - y4_52 - y16_17 - y45_53 - y1_46 - y46_54 - y9_14 - y15_48 - y49_50 - y7_44 - y26_57 - y49_59 - y19_36 - y50_51 - y0_32 - y19_45 - y42_47 - y0_41 - y8_54 - y19_54 - y42_56 - y0_50 - y12_24 - y52_60 - y12_33 - y23_33 - y23_42 - y4_38 - y4_47 - y24_25 - y22_55 - y3_60 - y14_60 - y5_11 - y46_49 - y26_43 - y7_39 - y18_39 - y49_54 - y18_48 - y8_13 - y7_57 - y19_22 - y27_35 - y19_31 - y30_49 - y41_46 - y11_54 - y20_32 - y23_28 - y53_56 - y34_52 - y37_48 - y14_55 - y15_20 - y18_25 - y15_38 - y26_38 - y18_52 - y8_17 - y11_13 - y11_22 - y19_35 - y19_44 - y12_14 - y4_10 - y44_46 - y12_23 - y25_51 - y1_4 - y2_58 - y25_60 - y34_38 - y1_13 - y34_47 - y22_54 - y34_56 - y45_56 - y3_50 - y37_52 - y26_33 - y7_29 - y26_42 - y11_17 - y29_53 - y8_30 - y19_30 - y40_53 - y0_26 - y6_60 - y10_57 - y33_59 - y25_55 - y3_27 - y3_36 - y37_38 - y22_49 - y3_54 - y37_56 - y26_28 - y7_24 - y26_46 - y48_52 - y29_48 - y40_48 - y11_21 - y40_57 - y21_53 - y10_34 - y4_9 - y10_43 - y33_45 - y33_54 - y14_22 - y22_35 - y34_37 - y14_31 - y22_44 - y3_40 - y3_49 - y36_46 - y7_19 - y15_32 - y17_51 - y17_60 - y18_37 - y29_43 - y40_43 - y21_39 - y6_50 - y11_16 - y29_52 - y21_48 - y10_20 - y2_25 - y2_34 - y44_49 - y3_8 - y2_52 - y22_30 - y13_58 - y3_44 - y36_41 - y47_50 - y17_46 - y28_46 - y36_59 - y47_59 - y5_53 - y6_36 - y48_51 - y29_47 - y21_43 - y6_54 - y29_56 - y10_15 - y25_31 - y33_44 - y2_38 - y43_57 - y3_30 - y1_60 - y17_32 - y36_45 - y9_37 - y9_46 - y6_22 - y58_60 - y21_29 - y21_38 - y29_51 - y2_6 - y10_28 - y31_60 - y32_34 - y2_42 - y3_16 - y24_48 - y16_44 - y24_57 - y35_57 - y28_36 - y47_49 - y17_45 - y36_58 - y9_41 - y47_58 - y5_52 - y6_17 - y17_54 - y9_59 - y6_35 - y6_44 - y39_50 - y2_10 - y10_23 - y39_59 - y31_55 - y12_51 - y23_51 - y13_25 - y2_37 - y4_56 - y24_34 - y43_47 - y24_43 - y43_56 - y13_52 - y16_48 - y9_27 - y6_21 - y6_39 - y31_41 - y2_14 - y31_50 - y31_59 - y4_42 - y23_55 - y13_20 - y32_33 - y24_29 - y16_34 - y1_45 - y35_47 - y13_56 - y24_56 - y9_22 - y49_58 - y5_42 - y9_40 - y5_51 - y27_48 - y21_23 - y8_53 - y30_53 - y11_58 - y39_40 - y10_13 - y12_32 - y2_9 - y31_45 - y12_41 - y20_54 - y4_37 - y31_54 - y12_50 - y54_56 - y23_59 - y1_22 - y4_55 - y16_20 - y24_33 - y13_42 - y24_42 - y46_48 - y38_44 - y17_21 - y5_28 - y9_35 - y27_34 - y30_39 - y27_52 - y11_44 - y42_59 - y12_27 - y2_4 - y12_36 - y1_8 - y20_58 - y31_58 - y1_17 - y13_19 - y4_59 - y56_60 - y1_35 - y35_37 - y38_39 - y9_12 - y38_48 - y5_23 - y9_21 - y15_55 - y38_57 - y27_29 - y8_25 - y27_38 - y27_47 - y8_43 - y19_43 - y27_56 - y42_45 - y8_52 - y30_52 - y31_35 - y4_27 - y13_14 - y4_45 - y34_46 - y1_21 - y34_55 - y16_28 - y14_58 - y37_60 - y15_41 - y26_41 - y5_18 - y46_56 - y15_50 - y38_52 - y18_46 - y15_59 - y26_59 - y7_55 - y8_20 - y27_33 - y27_42 - y0_25 - y11_25 - y0_34 - y19_47 - y11_43 - y8_56 - y20_21 - y30_56 - y20_30 - y4_13 - y4_22 - y12_35 - y4_40 - y22_48 - y1_25 - y37_46 - y16_23 - y34_59 - y3_53 - y14_53 - y37_55 - y15_27 - y46_51 - y7_32 - y26_45 - y38_47 - y7_41 - y18_41 - y15_54 - y26_54 - y38_56 - y8_15 - y0_11 - y8_24 - y27_37 - y30_33 - y27_46 - y8_42 - y19_42 - y11_38 - y30_51 - y12_21 - y41_57 - y1_2 - y22_43 - y53_58 - y14_48 - y3_57 - y14_57 - y37_59 - y15_31 - y38_42 - y15_49 - y7_45 - y18_45 - y19_28 - y0_24 - y11_24 - y8_37 - y19_37 - y29_60 - y0_33 - y4_12 - y25_44 - y4_21 - y10_55 - y44_57 - y1_6 - y2_60 - y22_38 - y22_47 - y34_49 - y45_49 - y14_43 - y22_56 - y56_58 - y59_60 - y15_35 - y26_35 - y26_44 - y7_40 - y0_1 - y8_14 - y0_10 - y8_23 - y19_23 - y48_59 - y6_53 - y21_51 - y10_41 - y41_56 - y25_57 - y22_33 - y34_44 - y3_38 - y3_56
 Subject to
C1: x0+x1-y0_1 <=1 
C2: x0+x2 <=1 
C3: x0+x5 <=1 
C4: x0+x7 <=1 
C5: x0+x10-y0_10 <=1 
C6: x0+x11-y0_11 <=1 
C7: x0+x12 <=1 
C8: x0+x13 <=1 
C9: x0+x14 <=1 
C10: x0+x15 <=1 
C11: x0+x16 <=1 
C12: x0+x18 <=1 
C13: x0+x20 <=1 
C14: x0+x21 <=1 
C15: x0+x22 <=1 
C16: x0+x24-y0_24 <=1 
C17: x0+x25-y0_25 <=1 
C18: x0+x26-y0_26 <=1 
C19: x0+x27 <=1 
C20: x0+x32-y0_32 <=1 
C21: x0+x33-y0_33 <=1 
C22: x0+x34-y0_34 <=1 
C23: x0+x38 <=1 
C24: x0+x40 <=1 
C25: x0+x41-y0_41 <=1 
C26: x0+x42 <=1 
C27: x0+x45 <=1 
C28: x0+x46-y0_46 <=1 
C29: x0+x48 <=1 
C30: x0+x50-y0_50 <=1 
C31: x0+x51 <=1 
C32: x0+x53 <=1 
C33: x0+x54 <=1 
C34: x0+x55 <=1 
C35: x0+x56-y0_56 <=1 
C36: x0+x60-y0_60 <=1 
C37: x1+x2-y1_2 <=1 
C38: x1+x4-y1_4 <=1 
C39: x1+x6-y1_6 <=1 
C40: x1+x8-y1_8 <=1 
C41: x1+x9 <=1 
C42: x1+x10 <=1 
C43: x1+x11 <=1 
C44: x1+x13-y1_13 <=1 
C45: x1+x14 <=1 
C46: x1+x15-y1_15 <=1 
C47: x1+x17-y1_17 <=1 
C48: x1+x18 <=1 
C49: x1+x19 <=1 
C50: x1+x20 <=1 
C51: x1+x21-y1_21 <=1 
C52: x1+x22-y1_22 <=1 
C53: x1+x23 <=1 
C54: x1+x24 <=1 
C55: x1+x25-y1_25 <=1 
C56: x1+x28 <=1 
C57: x1+x29 <=1 
C58: x1+x31 <=1 
C59: x1+x32 <=1 
C60: x1+x34-y1_34 <=1 
C61: x1+x35-y1_35 <=1 
C62: x1+x38-y1_38 <=1 
C63: x1+x45-y1_45 <=1 
C64: x1+x46-y1_46 <=1 
C65: x1+x48-y1_48 <=1 
C66: x1+x49 <=1 
C67: x1+x51-y1_51 <=1 
C68: x1+x52 <=1 
C69: x1+x53-y1_53 <=1 
C70: x1+x57 <=1 
C71: x1+x60-y1_60 <=1 
C72: x2+x3 <=1 
C73: x2+x4-y2_4 <=1 
C74: x2+x5 <=1 
C75: x2+x6-y2_6 <=1 
C76: x2+x9-y2_9 <=1 
C77: x2+x10-y2_10 <=1 
C78: x2+x14-y2_14 <=1 
C79: x2+x15 <=1 
C80: x2+x16-y2_16 <=1 
C81: x2+x17-y2_17 <=1 
C82: x2+x18 <=1 
C83: x2+x20 <=1 
C84: x2+x21 <=1 
C85: x2+x22 <=1 
C86: x2+x24 <=1 
C87: x2+x25-y2_25 <=1 
C88: x2+x26-y2_26 <=1 
C89: x2+x30-y2_30 <=1 
C90: x2+x31 <=1 
C91: x2+x34-y2_34 <=1 
C92: x2+x36-y2_36 <=1 
C93: x2+x37-y2_37 <=1 
C94: x2+x38-y2_38 <=1 
C95: x2+x41-y2_41 <=1 
C96: x2+x42-y2_42 <=1 
C97: x2+x43 <=1 
C98: x2+x44 <=1 
C99: x2+x45-y2_45 <=1 
C100: x2+x50 <=1 
C101: x2+x52-y2_52 <=1 
C102: x2+x53 <=1 
C103: x2+x55 <=1 
C104: x2+x56 <=1 
C105: x2+x58-y2_58 <=1 
C106: x2+x60-y2_60 <=1 
C107: x3+x6 <=1 
C108: x3+x7 <=1 
C109: x3+x8-y3_8 <=1 
C110: x3+x9-y3_9 <=1 
C111: x3+x10 <=1 
C112: x3+x12 <=1 
C113: x3+x14 <=1 
C114: x3+x15 <=1 
C115: x3+x16-y3_16 <=1 
C116: x3+x19-y3_19 <=1 
C117: x3+x21 <=1 
C118: x3+x23-y3_23 <=1 
C119: x3+x25 <=1 
C120: x3+x26 <=1 
C121: x3+x27-y3_27 <=1 
C122: x3+x29 <=1 
C123: x3+x30-y3_30 <=1 
C124: x3+x31 <=1 
C125: x3+x34 <=1 
C126: x3+x36-y3_36 <=1 
C127: x3+x37 <=1 
C128: x3+x38-y3_38 <=1 
C129: x3+x40-y3_40 <=1 
C130: x3+x41 <=1 
C131: x3+x42-y3_42 <=1 
C132: x3+x43 <=1 
C133: x3+x44-y3_44 <=1 
C134: x3+x45 <=1 
C135: x3+x48 <=1 
C136: x3+x49-y3_49 <=1 
C137: x3+x50-y3_50 <=1 
C138: x3+x52 <=1 
C139: x3+x53-y3_53 <=1 
C140: x3+x54-y3_54 <=1 
C141: x3+x55 <=1 
C142: x3+x56-y3_56 <=1 
C143: x3+x57-y3_57 <=1 
C144: x3+x60-y3_60 <=1 
C145: x4+x6 <=1 
C146: x4+x7 <=1 
C147: x4+x8 <=1 
C148: x4+x9-y4_9 <=1 
C149: x4+x10-y4_10 <=1 
C150: x4+x12-y4_12 <=1 
C151: x4+x13-y4_13 <=1 
C152: x4+x15 <=1 
C153: x4+x18 <=1 
C154: x4+x20 <=1 
C155: x4+x21-y4_21 <=1 
C156: x4+x22-y4_22 <=1 
C157: x4+x25 <=1 
C158: x4+x26 <=1 
C159: x4+x27-y4_27 <=1 
C160: x4+x28 <=1 
C161: x4+x30-y4_30 <=1 
C162: x4+x31 <=1 
C163: x4+x32 <=1 
C164: x4+x34 <=1 
C165: x4+x35 <=1 
C166: x4+x37-y4_37 <=1 
C167: x4+x38-y4_38 <=1 
C168: x4+x40-y4_40 <=1 
C169: x4+x42-y4_42 <=1 
C170: x4+x43-y4_43 <=1 
C171: x4+x44 <=1 
C172: x4+x45-y4_45 <=1 
C173: x4+x46 <=1 
C174: x4+x47-y4_47 <=1 
C175: x4+x50 <=1 
C176: x4+x52-y4_52 <=1 
C177: x4+x54 <=1 
C178: x4+x55-y4_55 <=1 
C179: x4+x56-y4_56 <=1 
C180: x4+x57-y4_57 <=1 
C181: x4+x58 <=1 
C182: x4+x59-y4_59 <=1 
C183: x5+x6 <=1 
C184: x5+x7 <=1 
C185: x5+x10 <=1 
C186: x5+x11-y5_11 <=1 
C187: x5+x14 <=1 
C188: x5+x16 <=1 
C189: x5+x18-y5_18 <=1 
C190: x5+x20 <=1 
C191: x5+x21-y5_21 <=1 
C192: x5+x23-y5_23 <=1 
C193: x5+x25 <=1 
C194: x5+x27-y5_27 <=1 
C195: x5+x28-y5_28 <=1 
C196: x5+x29 <=1 
C197: x5+x30-y5_30 <=1 
C198: x5+x31 <=1 
C199: x5+x32 <=1 
C200: x5+x34 <=1 
C201: x5+x35 <=1 
C202: x5+x38 <=1 
C203: x5+x40-y5_40 <=1 
C204: x5+x41 <=1 
C205: x5+x42-y5_42 <=1 
C206: x5+x43 <=1 
C207: x5+x44 <=1 
C208: x5+x45-y5_45 <=1 
C209: x5+x46 <=1 
C210: x5+x48 <=1 
C211: x5+x49 <=1 
C212: x5+x50-y5_50 <=1 
C213: x5+x51-y5_51 <=1 
C214: x5+x52-y5_52 <=1 
C215: x5+x53-y5_53 <=1 
C216: x5+x54 <=1 
C217: x5+x55-y5_55 <=1 
C218: x5+x57 <=1 
C219: x5+x60 <=1 
C220: x6+x12 <=1 
C221: x6+x13 <=1 
C222: x6+x15-y6_15 <=1 
C223: x6+x16 <=1 
C224: x6+x17-y6_17 <=1 
C225: x6+x18 <=1 
C226: x6+x19 <=1 
C227: x6+x21-y6_21 <=1 
C228: x6+x22-y6_22 <=1 
C229: x6+x24 <=1 
C230: x6+x26 <=1 
C231: x6+x28 <=1 
C232: x6+x30 <=1 
C233: x6+x34-y6_34 <=1 
C234: x6+x35-y6_35 <=1 
C235: x6+x36-y6_36 <=1 
C236: x6+x37-y6_37 <=1 
C237: x6+x38-y6_38 <=1 
C238: x6+x39-y6_39 <=1 
C239: x6+x40 <=1 
C240: x6+x44-y6_44 <=1 
C241: x6+x46-y6_46 <=1 
C242: x6+x47 <=1 
C243: x6+x48 <=1 
C244: x6+x49 <=1 
C245: x6+x50-y6_50 <=1 
C246: x6+x51 <=1 
C247: x6+x53-y6_53 <=1 
C248: x6+x54-y6_54 <=1 
C249: x6+x55 <=1 
C250: x6+x57-y6_57 <=1 
C251: x6+x60-y6_60 <=1 
C252: x7+x11-y7_11 <=1 
C253: x7+x12-y7_12 <=1 
C254: x7+x13 <=1 
C255: x7+x14 <=1 
C256: x7+x17-y7_17 <=1 
C257: x7+x18 <=1 
C258: x7+x19-y7_19 <=1 
C259: x7+x24-y7_24 <=1 
C260: x7+x29-y7_29 <=1 
C261: x7+x30-y7_30 <=1 
C262: x7+x31 <=1 
C263: x7+x32-y7_32 <=1 
C264: x7+x35 <=1 
C265: x7+x36 <=1 
C266: x7+x39-y7_39 <=1 
C267: x7+x40-y7_40 <=1 
C268: x7+x41-y7_41 <=1 
C269: x7+x42 <=1 
C270: x7+x44-y7_44 <=1 
C271: x7+x45-y7_45 <=1 
C272: x7+x50 <=1 
C273: x7+x52 <=1 
C274: x7+x53 <=1 
C275: x7+x54 <=1 
C276: x7+x55-y7_55 <=1 
C277: x7+x56 <=1 
C278: x7+x57-y7_57 <=1 
C279: x7+x58 <=1 
C280: x7+x59 <=1 
C281: x7+x60 <=1 
C282: x8+x11 <=1 
C283: x8+x13-y8_13 <=1 
C284: x8+x14-y8_14 <=1 
C285: x8+x15-y8_15 <=1 
C286: x8+x17-y8_17 <=1 
C287: x8+x20-y8_20 <=1 
C288: x8+x21 <=1 
C289: x8+x22 <=1 
C290: x8+x23-y8_23 <=1 
C291: x8+x24-y8_24 <=1 
C292: x8+x25-y8_25 <=1 
C293: x8+x26 <=1 
C294: x8+x27 <=1 
C295: x8+x28 <=1 
C296: x8+x30-y8_30 <=1 
C297: x8+x35 <=1 
C298: x8+x36 <=1 
C299: x8+x37-y8_37 <=1 
C300: x8+x42-y8_42 <=1 
C301: x8+x43-y8_43 <=1 
C302: x8+x44 <=1 
C303: x8+x46-y8_46 <=1 
C304: x8+x52-y8_52 <=1 
C305: x8+x53-y8_53 <=1 
C306: x8+x54-y8_54 <=1 
C307: x8+x56-y8_56 <=1 
C308: x8+x57 <=1 
C309: x8+x59-y8_59 <=1 
C310: x8+x60-y8_60 <=1 
C311: x9+x12-y9_12 <=1 
C312: x9+x14-y9_14 <=1 
C313: x9+x16 <=1 
C314: x9+x17 <=1 
C315: x9+x18 <=1 
C316: x9+x21-y9_21 <=1 
C317: x9+x22-y9_22 <=1 
C318: x9+x23 <=1 
C319: x9+x24 <=1 
C320: x9+x25-y9_25 <=1 
C321: x9+x27-y9_27 <=1 
C322: x9+x29 <=1 
C323: x9+x30-y9_30 <=1 
C324: x9+x31 <=1 
C325: x9+x32 <=1 
C326: x9+x35-y9_35 <=1 
C327: x9+x36 <=1 
C328: x9+x37-y9_37 <=1 
C329: x9+x38 <=1 
C330: x9+x39-y9_39 <=1 
C331: x9+x40-y9_40 <=1 
C332: x9+x41-y9_41 <=1 
C333: x9+x42 <=1 
C334: x9+x44-y9_44 <=1 
C335: x9+x46-y9_46 <=1 
C336: x9+x47-y9_47 <=1 
C337: x9+x48-y9_48 <=1 
C338: x9+x49-y9_49 <=1 
C339: x9+x52-y9_52 <=1 
C340: x9+x53-y9_53 <=1 
C341: x9+x55 <=1 
C342: x9+x57 <=1 
C343: x9+x58 <=1 
C344: x9+x59-y9_59 <=1 
C345: x9+x60 <=1 
C346: x10+x11 <=1 
C347: x10+x12-y10_12 <=1 
C348: x10+x13-y10_13 <=1 
C349: x10+x14 <=1 
C350: x10+x15-y10_15 <=1 
C351: x10+x19 <=1 
C352: x10+x20-y10_20 <=1 
C353: x10+x21 <=1 
C354: x10+x22 <=1 
C355: x10+x23-y10_23 <=1 
C356: x10+x25-y10_25 <=1 
C357: x10+x28-y10_28 <=1 
C358: x10+x29 <=1 
C359: x10+x30 <=1 
C360: x10+x31-y10_31 <=1 
C361: x10+x33 <=1 
C362: x10+x34-y10_34 <=1 
C363: x10+x35-y10_35 <=1 
C364: x10+x37 <=1 
C365: x10+x41-y10_41 <=1 
C366: x10+x43-y10_43 <=1 
C367: x10+x44-y10_44 <=1 
C368: x10+x46 <=1 
C369: x10+x47 <=1 
C370: x10+x52 <=1 
C371: x10+x53 <=1 
C372: x10+x54 <=1 
C373: x10+x55-y10_55 <=1 
C374: x10+x57-y10_57 <=1 
C375: x10+x58 <=1 
C376: x10+x59 <=1 
C377: x11+x13-y11_13 <=1 
C378: x11+x14-y11_14 <=1 
C379: x11+x16-y11_16 <=1 
C380: x11+x17-y11_17 <=1 
C381: x11+x18 <=1 
C382: x11+x20 <=1 
C383: x11+x21-y11_21 <=1 
C384: x11+x22-y11_22 <=1 
C385: x11+x23 <=1 
C386: x11+x24-y11_24 <=1 
C387: x11+x25-y11_25 <=1 
C388: x11+x27 <=1 
C389: x11+x32 <=1 
C390: x11+x37-y11_37 <=1 
C391: x11+x38-y11_38 <=1 
C392: x11+x40 <=1 
C393: x11+x41 <=1 
C394: x11+x43-y11_43 <=1 
C395: x11+x44-y11_44 <=1 
C396: x11+x46-y11_46 <=1 
C397: x11+x47 <=1 
C398: x11+x49 <=1 
C399: x11+x52 <=1 
C400: x11+x53 <=1 
C401: x11+x54-y11_54 <=1 
C402: x11+x56 <=1 
C403: x11+x58-y11_58 <=1 
C404: x11+x59 <=1 
C405: x11+x60-y11_60 <=1 
C406: x12+x14-y12_14 <=1 
C407: x12+x16 <=1 
C408: x12+x17 <=1 
C409: x12+x20-y12_20 <=1 
C410: x12+x21-y12_21 <=1 
C411: x12+x22 <=1 
C412: x12+x23-y12_23 <=1 
C413: x12+x24-y12_24 <=1 
C414: x12+x25-y12_25 <=1 
C415: x12+x27-y12_27 <=1 
C416: x12+x28 <=1 
C417: x12+x29 <=1 
C418: x12+x31 <=1 
C419: x12+x32-y12_32 <=1 
C420: x12+x33-y12_33 <=1 
C421: x12+x34 <=1 
C422: x12+x35-y12_35 <=1 
C423: x12+x36-y12_36 <=1 
C424: x12+x38-y12_38 <=1 
C425: x12+x39 <=1 
C426: x12+x40 <=1 
C427: x12+x41-y12_41 <=1 
C428: x12+x43-y12_43 <=1 
C429: x12+x44-y12_44 <=1 
C430: x12+x47 <=1 
C431: x12+x48-y12_48 <=1 
C432: x12+x50-y12_50 <=1 
C433: x12+x51-y12_51 <=1 
C434: x12+x53-y12_53 <=1 
C435: x12+x55 <=1 
C436: x12+x56-y12_56 <=1 
C437: x12+x57-y12_57 <=1 
C438: x12+x58 <=1 
C439: x13+x14-y13_14 <=1 
C440: x13+x16 <=1 
C441: x13+x18 <=1 
C442: x13+x19-y13_19 <=1 
C443: x13+x20-y13_20 <=1 
C444: x13+x23 <=1 
C445: x13+x24 <=1 
C446: x13+x25-y13_25 <=1 
C447: x13+x26 <=1 
C448: x13+x27 <=1 
C449: x13+x28 <=1 
C450: x13+x30 <=1 
C451: x13+x31-y13_31 <=1 
C452: x13+x32-y13_32 <=1 
C453: x13+x35-y13_35 <=1 
C454: x13+x36-y13_36 <=1 
C455: x13+x41-y13_41 <=1 
C456: x13+x42-y13_42 <=1 
C457: x13+x43 <=1 
C458: x13+x44-y13_44 <=1 
C459: x13+x45 <=1 
C460: x13+x48 <=1 
C461: x13+x50 <=1 
C462: x13+x52-y13_52 <=1 
C463: x13+x55-y13_55 <=1 
C464: x13+x56-y13_56 <=1 
C465: x13+x57 <=1 
C466: x13+x58-y13_58 <=1 
C467: x13+x59-y13_59 <=1 
C468: x13+x60-y13_60 <=1 
C469: x14+x16 <=1 
C470: x14+x18-y14_18 <=1 
C471: x14+x19 <=1 
C472: x14+x20 <=1 
C473: x14+x22-y14_22 <=1 
C474: x14+x24-y14_24 <=1 
C475: x14+x25 <=1 
C476: x14+x26 <=1 
C477: x14+x27 <=1 
C478: x14+x29 <=1 
C479: x14+x31-y14_31 <=1 
C480: x14+x32 <=1 
C481: x14+x33 <=1 
C482: x14+x36 <=1 
C483: x14+x37-y14_37 <=1 
C484: x14+x38 <=1 
C485: x14+x39 <=1 
C486: x14+x40 <=1 
C487: x14+x41 <=1 
C488: x14+x42 <=1 
C489: x14+x43-y14_43 <=1 
C490: x14+x47 <=1 
C491: x14+x48-y14_48 <=1 
C492: x14+x49 <=1 
C493: x14+x51 <=1 
C494: x14+x53-y14_53 <=1 
C495: x14+x55-y14_55 <=1 
C496: x14+x57-y14_57 <=1 
C497: x14+x58-y14_58 <=1 
C498: x14+x59 <=1 
C499: x14+x60-y14_60 <=1 
C500: x15+x17 <=1 
C501: x15+x20-y15_20 <=1 
C502: x15+x21 <=1 
C503: x15+x22 <=1 
C504: x15+x26 <=1 
C505: x15+x27-y15_27 <=1 
C506: x15+x31-y15_31 <=1 
C507: x15+x32-y15_32 <=1 
C508: x15+x34 <=1 
C509: x15+x35-y15_35 <=1 
C510: x15+x38-y15_38 <=1 
C511: x15+x39-y15_39 <=1 
C512: x15+x41-y15_41 <=1 
C513: x15+x42 <=1 
C514: x15+x44 <=1 
C515: x15+x48-y15_48 <=1 
C516: x15+x49-y15_49 <=1 
C517: x15+x50-y15_50 <=1 
C518: x15+x51 <=1 
C519: x15+x53-y15_53 <=1 
C520: x15+x54-y15_54 <=1 
C521: x15+x55-y15_55 <=1 
C522: x15+x57 <=1 
C523: x15+x59-y15_59 <=1 
C524: x16+x17-y16_17 <=1 
C525: x16+x18-y16_18 <=1 
C526: x16+x20-y16_20 <=1 
C527: x16+x21 <=1 
C528: x16+x22 <=1 
C529: x16+x23-y16_23 <=1 
C530: x16+x24 <=1 
C531: x16+x28-y16_28 <=1 
C532: x16+x32-y16_32 <=1 
C533: x16+x34-y16_34 <=1 
C534: x16+x36-y16_36 <=1 
C535: x16+x37-y16_37 <=1 
C536: x16+x38 <=1 
C537: x16+x40 <=1 
C538: x16+x44-y16_44 <=1 
C539: x16+x45 <=1 
C540: x16+x47 <=1 
C541: x16+x48-y16_48 <=1 
C542: x16+x49-y16_49 <=1 
C543: x16+x50 <=1 
C544: x16+x54 <=1 
C545: x16+x55-y16_55 <=1 
C546: x16+x56 <=1 
C547: x16+x57 <=1 
C548: x16+x59 <=1 
C549: x16+x60 <=1 
C550: x17+x20 <=1 
C551: x17+x21-y17_21 <=1 
C552: x17+x24 <=1 
C553: x17+x26 <=1 
C554: x17+x28 <=1 
C555: x17+x30 <=1 
C556: x17+x32-y17_32 <=1 
C557: x17+x34 <=1 
C558: x17+x35 <=1 
C559: x17+x37 <=1 
C560: x17+x38-y17_38 <=1 
C561: x17+x42-y17_42 <=1 
C562: x17+x43-y17_43 <=1 
C563: x17+x45-y17_45 <=1 
C564: x17+x46-y17_46 <=1 
C565: x17+x47-y17_47 <=1 
C566: x17+x48-y17_48 <=1 
C567: x17+x49 <=1 
C568: x17+x50 <=1 
C569: x17+x51-y17_51 <=1 
C570: x17+x52-y17_52 <=1 
C571: x17+x54-y17_54 <=1 
C572: x17+x56 <=1 
C573: x17+x57 <=1 
C574: x17+x58-y17_58 <=1 
C575: x17+x59 <=1 
C576: x17+x60-y17_60 <=1 
C577: x18+x20 <=1 
C578: x18+x22 <=1 
C579: x18+x24 <=1 
C580: x18+x25-y18_25 <=1 
C581: x18+x26-y18_26 <=1 
C582: x18+x27 <=1 
C583: x18+x29 <=1 
C584: x18+x30 <=1 
C585: x18+x31 <=1 
C586: x18+x34 <=1 
C587: x18+x35-y18_35 <=1 
C588: x18+x37-y18_37 <=1 
C589: x18+x38 <=1 
C590: x18+x39-y18_39 <=1 
C591: x18+x40 <=1 
C592: x18+x41-y18_41 <=1 
C593: x18+x43 <=1 
C594: x18+x44-y18_44 <=1 
C595: x18+x45-y18_45 <=1 
C596: x18+x46-y18_46 <=1 
C597: x18+x47 <=1 
C598: x18+x48-y18_48 <=1 
C599: x18+x49 <=1 
C600: x18+x50 <=1 
C601: x18+x52-y18_52 <=1 
C602: x18+x53 <=1 
C603: x18+x54 <=1 
C604: x18+x56 <=1 
C605: x18+x57 <=1 
C606: x18+x58 <=1 
C607: x18+x59 <=1 
C608: x19+x21 <=1 
C609: x19+x22-y19_22 <=1 
C610: x19+x23-y19_23 <=1 
C611: x19+x24 <=1 
C612: x19+x25 <=1 
C613: x19+x28-y19_28 <=1 
C614: x19+x29 <=1 
C615: x19+x30-y19_30 <=1 
C616: x19+x31-y19_31 <=1 
C617: x19+x32-y19_32 <=1 
C618: x19+x35-y19_35 <=1 
C619: x19+x36-y19_36 <=1 
C620: x19+x37-y19_37 <=1 
C621: x19+x40 <=1 
C622: x19+x42-y19_42 <=1 
C623: x19+x43-y19_43 <=1 
C624: x19+x44-y19_44 <=1 
C625: x19+x45-y19_45 <=1 
C626: x19+x46-y19_46 <=1 
C627: x19+x47-y19_47 <=1 
C628: x19+x50 <=1 
C629: x19+x54-y19_54 <=1 
C630: x19+x58 <=1 
C631: x19+x59 <=1 
C632: x20+x21-y20_21 <=1 
C633: x20+x22 <=1 
C634: x20+x23 <=1 
C635: x20+x24 <=1 
C636: x20+x25 <=1 
C637: x20+x26 <=1 
C638: x20+x27 <=1 
C639: x20+x29 <=1 
C640: x20+x30-y20_30 <=1 
C641: x20+x32-y20_32 <=1 
C642: x20+x34 <=1 
C643: x20+x35 <=1 
C644: x20+x36 <=1 
C645: x20+x39-y20_39 <=1 
C646: x20+x42 <=1 
C647: x20+x46 <=1 
C648: x20+x48-y20_48 <=1 
C649: x20+x49 <=1 
C650: x20+x50 <=1 
C651: x20+x51 <=1 
C652: x20+x54-y20_54 <=1 
C653: x20+x55 <=1 
C654: x20+x57-y20_57 <=1 
C655: x20+x58-y20_58 <=1 
C656: x20+x59 <=1 
C657: x21+x23-y21_23 <=1 
C658: x21+x24 <=1 
C659: x21+x27 <=1 
C660: x21+x29-y21_29 <=1 
C661: x21+x30-y21_30 <=1 
C662: x21+x32 <=1 
C663: x21+x35 <=1 
C664: x21+x36-y21_36 <=1 
C665: x21+x38-y21_38 <=1 
C666: x21+x39-y21_39 <=1 
C667: x21+x40 <=1 
C668: x21+x41 <=1 
C669: x21+x43-y21_43 <=1 
C670: x21+x44 <=1 
C671: x21+x46-y21_46 <=1 
C672: x21+x47 <=1 
C673: x21+x48-y21_48 <=1 
C674: x21+x50 <=1 
C675: x21+x51-y21_51 <=1 
C676: x21+x53-y21_53 <=1 
C677: x21+x56 <=1 
C678: x21+x59 <=1 
C679: x21+x60 <=1 
C680: x22+x23-y22_23 <=1 
C681: x22+x26 <=1 
C682: x22+x27-y22_27 <=1 
C683: x22+x28-y22_28 <=1 
C684: x22+x29 <=1 
C685: x22+x30-y22_30 <=1 
C686: x22+x32 <=1 
C687: x22+x33-y22_33 <=1 
C688: x22+x35-y22_35 <=1 
C689: x22+x37 <=1 
C690: x22+x38-y22_38 <=1 
C691: x22+x39 <=1 
C692: x22+x43-y22_43 <=1 
C693: x22+x44-y22_44 <=1 
C694: x22+x45 <=1 
C695: x22+x47-y22_47 <=1 
C696: x22+x48-y22_48 <=1 
C697: x22+x49-y22_49 <=1 
C698: x22+x50 <=1 
C699: x22+x52 <=1 
C700: x22+x53 <=1 
C701: x22+x54-y22_54 <=1 
C702: x22+x55-y22_55 <=1 
C703: x22+x56-y22_56 <=1 
C704: x22+x58 <=1 
C705: x22+x59 <=1 
C706: x23+x25-y23_25 <=1 
C707: x23+x26 <=1 
C708: x23+x27 <=1 
C709: x23+x28-y23_28 <=1 
C710: x23+x29-y23_29 <=1 
C711: x23+x31 <=1 
C712: x23+x33-y23_33 <=1 
C713: x23+x34-y23_34 <=1 
C714: x23+x35 <=1 
C715: x23+x37 <=1 
C716: x23+x38-y23_38 <=1 
C717: x23+x41 <=1 
C718: x23+x42-y23_42 <=1 
C719: x23+x44 <=1 
C720: x23+x45 <=1 
C721: x23+x47-y23_47 <=1 
C722: x23+x49 <=1 
C723: x23+x50 <=1 
C724: x23+x51-y23_51 <=1 
C725: x23+x52 <=1 
C726: x23+x53-y23_53 <=1 
C727: x23+x54 <=1 
C728: x23+x55-y23_55 <=1 
C729: x23+x56 <=1 
C730: x23+x57-y23_57 <=1 
C731: x23+x58-y23_58 <=1 
C732: x23+x59-y23_59 <=1 
C733: x24+x25-y24_25 <=1 
C734: x24+x26-y24_26 <=1 
C735: x24+x27 <=1 
C736: x24+x28 <=1 
C737: x24+x29-y24_29 <=1 
C738: x24+x31-y24_31 <=1 
C739: x24+x33-y24_33 <=1 
C740: x24+x34-y24_34 <=1 
C741: x24+x37 <=1 
C742: x24+x40-y24_40 <=1 
C743: x24+x41 <=1 
C744: x24+x42-y24_42 <=1 
C745: x24+x43-y24_43 <=1 
C746: x24+x44 <=1 
C747: x24+x45 <=1 
C748: x24+x46 <=1 
C749: x24+x47 <=1 
C750: x24+x48-y24_48 <=1 
C751: x24+x51 <=1 
C752: x24+x52 <=1 
C753: x24+x54-y24_54 <=1 
C754: x24+x55 <=1 
C755: x24+x56-y24_56 <=1 
C756: x24+x57-y24_57 <=1 
C757: x24+x58 <=1 
C758: x24+x59-y24_59 <=1 
C759: x25+x26 <=1 
C760: x25+x28 <=1 
C761: x25+x29-y25_29 <=1 
C762: x25+x30 <=1 
C763: x25+x31-y25_31 <=1 
C764: x25+x34-y25_34 <=1 
C765: x25+x35 <=1 
C766: x25+x37 <=1 
C767: x25+x38 <=1 
C768: x25+x42-y25_42 <=1 
C769: x25+x44-y25_44 <=1 
C770: x25+x45 <=1 
C771: x25+x46 <=1 
C772: x25+x50 <=1 
C773: x25+x51-y25_51 <=1 
C774: x25+x52-y25_52 <=1 
C775: x25+x55-y25_55 <=1 
C776: x25+x57-y25_57 <=1 
C777: x25+x60-y25_60 <=1 
C778: x26+x28-y26_28 <=1 
C779: x26+x32 <=1 
C780: x26+x33-y26_33 <=1 
C781: x26+x34 <=1 
C782: x26+x35-y26_35 <=1 
C783: x26+x38-y26_38 <=1 
C784: x26+x41-y26_41 <=1 
C785: x26+x42-y26_42 <=1 
C786: x26+x43-y26_43 <=1 
C787: x26+x44-y26_44 <=1 
C788: x26+x45-y26_45 <=1 
C789: x26+x46-y26_46 <=1 
C790: x26+x49 <=1 
C791: x26+x52 <=1 
C792: x26+x54-y26_54 <=1 
C793: x26+x55 <=1 
C794: x26+x57-y26_57 <=1 
C795: x26+x59-y26_59 <=1 
C796: x26+x60 <=1 
C797: x27+x28 <=1 
C798: x27+x29-y27_29 <=1 
C799: x27+x33-y27_33 <=1 
C800: x27+x34-y27_34 <=1 
C801: x27+x35-y27_35 <=1 
C802: x27+x37-y27_37 <=1 
C803: x27+x38-y27_38 <=1 
C804: x27+x39 <=1 
C805: x27+x41-y27_41 <=1 
C806: x27+x42-y27_42 <=1 
C807: x27+x44 <=1 
C808: x27+x45-y27_45 <=1 
C809: x27+x46-y27_46 <=1 
C810: x27+x47-y27_47 <=1 
C811: x27+x48-y27_48 <=1 
C812: x27+x49 <=1 
C813: x27+x50-y27_50 <=1 
C814: x27+x52-y27_52 <=1 
C815: x27+x54-y27_54 <=1 
C816: x27+x55-y27_55 <=1 
C817: x27+x56-y27_56 <=1 
C818: x27+x58 <=1 
C819: x27+x59 <=1 
C820: x27+x60-y27_60 <=1 
C821: x28+x30 <=1 
C822: x28+x32 <=1 
C823: x28+x33 <=1 
C824: x28+x34-y28_34 <=1 
C825: x28+x35 <=1 
C826: x28+x36-y28_36 <=1 
C827: x28+x39-y28_39 <=1 
C828: x28+x40 <=1 
C829: x28+x41 <=1 
C830: x28+x43 <=1 
C831: x28+x44 <=1 
C832: x28+x45 <=1 
C833: x28+x46-y28_46 <=1 
C834: x28+x47-y28_47 <=1 
C835: x28+x48 <=1 
C836: x28+x49 <=1 
C837: x28+x57-y28_57 <=1 
C838: x29+x31 <=1 
C839: x29+x34 <=1 
C840: x29+x36 <=1 
C841: x29+x38 <=1 
C842: x29+x40-y29_40 <=1 
C843: x29+x43-y29_43 <=1 
C844: x29+x46 <=1 
C845: x29+x47-y29_47 <=1 
C846: x29+x48-y29_48 <=1 
C847: x29+x49 <=1 
C848: x29+x50 <=1 
C849: x29+x51-y29_51 <=1 
C850: x29+x52-y29_52 <=1 
C851: x29+x53-y29_53 <=1 
C852: x29+x54-y29_54 <=1 
C853: x29+x56-y29_56 <=1 
C854: x29+x59 <=1 
C855: x29+x60-y29_60 <=1 
C856: x30+x33-y30_33 <=1 
C857: x30+x34 <=1 
C858: x30+x37 <=1 
C859: x30+x38 <=1 
C860: x30+x39-y30_39 <=1 
C861: x30+x40 <=1 
C862: x30+x41 <=1 
C863: x30+x44 <=1 
C864: x30+x46 <=1 
C865: x30+x49-y30_49 <=1 
C866: x30+x50 <=1 
C867: x30+x51-y30_51 <=1 
C868: x30+x52-y30_52 <=1 
C869: x30+x53-y30_53 <=1 
C870: x30+x54 <=1 
C871: x30+x56-y30_56 <=1 
C872: x30+x59 <=1 
C873: x30+x60-y30_60 <=1 
C874: x31+x33 <=1 
C875: x31+x34 <=1 
C876: x31+x35-y31_35 <=1 
C877: x31+x36 <=1 
C878: x31+x37 <=1 
C879: x31+x38-y31_38 <=1 
C880: x31+x40 <=1 
C881: x31+x41-y31_41 <=1 
C882: x31+x44 <=1 
C883: x31+x45-y31_45 <=1 
C884: x31+x50-y31_50 <=1 
C885: x31+x51-y31_51 <=1 
C886: x31+x52 <=1 
C887: x31+x54-y31_54 <=1 
C888: x31+x55-y31_55 <=1 
C889: x31+x56 <=1 
C890: x31+x57-y31_57 <=1 
C891: x31+x58-y31_58 <=1 
C892: x31+x59-y31_59 <=1 
C893: x31+x60-y31_60 <=1 
C894: x32+x33-y32_33 <=1 
C895: x32+x34-y32_34 <=1 
C896: x32+x37 <=1 
C897: x32+x39-y32_39 <=1 
C898: x32+x40 <=1 
C899: x32+x41-y32_41 <=1 
C900: x32+x45 <=1 
C901: x32+x49 <=1 
C902: x32+x54 <=1 
C903: x32+x57 <=1 
C904: x32+x59-y32_59 <=1 
C905: x33+x34 <=1 
C906: x33+x36 <=1 
C907: x33+x37 <=1 
C908: x33+x38-y33_38 <=1 
C909: x33+x40 <=1 
C910: x33+x41 <=1 
C911: x33+x42 <=1 
C912: x33+x43 <=1 
C913: x33+x44-y33_44 <=1 
C914: x33+x45-y33_45 <=1 
C915: x33+x46 <=1 
C916: x33+x47 <=1 
C917: x33+x51 <=1 
C918: x33+x53 <=1 
C919: x33+x54-y33_54 <=1 
C920: x33+x59-y33_59 <=1 
C921: x33+x60 <=1 
C922: x34+x37-y34_37 <=1 
C923: x34+x38-y34_38 <=1 
C924: x34+x39 <=1 
C925: x34+x41 <=1 
C926: x34+x42 <=1 
C927: x34+x44-y34_44 <=1 
C928: x34+x45 <=1 
C929: x34+x46-y34_46 <=1 
C930: x34+x47-y34_47 <=1 
C931: x34+x48 <=1 
C932: x34+x49-y34_49 <=1 
C933: x34+x52-y34_52 <=1 
C934: x34+x53 <=1 
C935: x34+x55-y34_55 <=1 
C936: x34+x56-y34_56 <=1 
C937: x34+x58-y34_58 <=1 
C938: x34+x59-y34_59 <=1 
C939: x35+x36 <=1 
C940: x35+x37-y35_37 <=1 
C941: x35+x38 <=1 
C942: x35+x39 <=1 
C943: x35+x40 <=1 
C944: x35+x41 <=1 
C945: x35+x42 <=1 
C946: x35+x44-y35_44 <=1 
C947: x35+x45-y35_45 <=1 
C948: x35+x46-y35_46 <=1 
C949: x35+x47-y35_47 <=1 
C950: x35+x49 <=1 
C951: x35+x50 <=1 
C952: x35+x53 <=1 
C953: x35+x54-y35_54 <=1 
C954: x35+x57-y35_57 <=1 
C955: x35+x58-y35_58 <=1 
C956: x35+x60-y35_60 <=1 
C957: x36+x38-y36_38 <=1 
C958: x36+x39 <=1 
C959: x36+x40 <=1 
C960: x36+x41-y36_41 <=1 
C961: x36+x43 <=1 
C962: x36+x45-y36_45 <=1 
C963: x36+x46-y36_46 <=1 
C964: x36+x48 <=1 
C965: x36+x49 <=1 
C966: x36+x51-y36_51 <=1 
C967: x36+x52-y36_52 <=1 
C968: x36+x53-y36_53 <=1 
C969: x36+x54 <=1 
C970: x36+x55 <=1 
C971: x36+x57 <=1 
C972: x36+x58-y36_58 <=1 
C973: x36+x59-y36_59 <=1 
C974: x37+x38-y37_38 <=1 
C975: x37+x39 <=1 
C976: x37+x42 <=1 
C977: x37+x43 <=1 
C978: x37+x46-y37_46 <=1 
C979: x37+x47 <=1 
C980: x37+x48-y37_48 <=1 
C981: x37+x49 <=1 
C982: x37+x51 <=1 
C983: x37+x52-y37_52 <=1 
C984: x37+x54 <=1 
C985: x37+x55-y37_55 <=1 
C986: x37+x56-y37_56 <=1 
C987: x37+x59-y37_59 <=1 
C988: x37+x60-y37_60 <=1 
C989: x38+x39-y38_39 <=1 
C990: x38+x41 <=1 
C991: x38+x42-y38_42 <=1 
C992: x38+x43 <=1 
C993: x38+x44-y38_44 <=1 
C994: x38+x46 <=1 
C995: x38+x47-y38_47 <=1 
C996: x38+x48-y38_48 <=1 
C997: x38+x50 <=1 
C998: x38+x51 <=1 
C999: x38+x52-y38_52 <=1 
C1000: x38+x53 <=1 
C1001: x38+x54 <=1 
C1002: x38+x55-y38_55 <=1 
C1003: x38+x56-y38_56 <=1 
C1004: x38+x57-y38_57 <=1 
C1005: x38+x58 <=1 
C1006: x38+x59 <=1 
C1007: x39+x40-y39_40 <=1 
C1008: x39+x42-y39_42 <=1 
C1009: x39+x47 <=1 
C1010: x39+x50-y39_50 <=1 
C1011: x39+x52-y39_52 <=1 
C1012: x39+x53 <=1 
C1013: x39+x55 <=1 
C1014: x39+x57 <=1 
C1015: x39+x58 <=1 
C1016: x39+x59-y39_59 <=1 
C1017: x40+x41-y40_41 <=1 
C1018: x40+x43-y40_43 <=1 
C1019: x40+x44 <=1 
C1020: x40+x46 <=1 
C1021: x40+x48-y40_48 <=1 
C1022: x40+x52 <=1 
C1023: x40+x53-y40_53 <=1 
C1024: x40+x54-y40_54 <=1 
C1025: x40+x56 <=1 
C1026: x40+x57-y40_57 <=1 
C1027: x40+x60 <=1 
C1028: x41+x42 <=1 
C1029: x41+x45 <=1 
C1030: x41+x46-y41_46 <=1 
C1031: x41+x47 <=1 
C1032: x41+x48 <=1 
C1033: x41+x49 <=1 
C1034: x41+x51-y41_51 <=1 
C1035: x41+x53 <=1 
C1036: x41+x54 <=1 
C1037: x41+x56-y41_56 <=1 
C1038: x41+x57-y41_57 <=1 
C1039: x41+x58 <=1 
C1040: x41+x59 <=1 
C1041: x41+x60 <=1 
C1042: x42+x44 <=1 
C1043: x42+x45-y42_45 <=1 
C1044: x42+x46 <=1 
C1045: x42+x47-y42_47 <=1 
C1046: x42+x48-y42_48 <=1 
C1047: x42+x50 <=1 
C1048: x42+x55 <=1 
C1049: x42+x56-y42_56 <=1 
C1050: x42+x57-y42_57 <=1 
C1051: x42+x59-y42_59 <=1 
C1052: x43+x44 <=1 
C1053: x43+x47-y43_47 <=1 
C1054: x43+x49-y43_49 <=1 
C1055: x43+x51 <=1 
C1056: x43+x53 <=1 
C1057: x43+x56-y43_56 <=1 
C1058: x43+x57-y43_57 <=1 
C1059: x43+x58 <=1 
C1060: x43+x59-y43_59 <=1 
C1061: x44+x46-y44_46 <=1 
C1062: x44+x49-y44_49 <=1 
C1063: x44+x51 <=1 
C1064: x44+x52 <=1 
C1065: x44+x53 <=1 
C1066: x44+x54 <=1 
C1067: x44+x55 <=1 
C1068: x44+x56-y44_56 <=1 
C1069: x44+x57-y44_57 <=1 
C1070: x44+x58 <=1 
C1071: x44+x59 <=1 
C1072: x45+x47 <=1 
C1073: x45+x49-y45_49 <=1 
C1074: x45+x51 <=1 
C1075: x45+x53-y45_53 <=1 
C1076: x45+x54 <=1 
C1077: x45+x56-y45_56 <=1 
C1078: x45+x59 <=1 
C1079: x46+x48-y46_48 <=1 
C1080: x46+x49-y46_49 <=1 
C1081: x46+x50 <=1 
C1082: x46+x51-y46_51 <=1 
C1083: x46+x53 <=1 
C1084: x46+x54-y46_54 <=1 
C1085: x46+x55-y46_55 <=1 
C1086: x46+x56-y46_56 <=1 
C1087: x46+x59 <=1 
C1088: x47+x48 <=1 
C1089: x47+x49-y47_49 <=1 
C1090: x47+x50-y47_50 <=1 
C1091: x47+x51-y47_51 <=1 
C1092: x47+x52 <=1 
C1093: x47+x54 <=1 
C1094: x47+x56 <=1 
C1095: x47+x58-y47_58 <=1 
C1096: x47+x59-y47_59 <=1 
C1097: x47+x60 <=1 
C1098: x48+x50 <=1 
C1099: x48+x51-y48_51 <=1 
C1100: x48+x52-y48_52 <=1 
C1101: x48+x53-y48_53 <=1 
C1102: x48+x57 <=1 
C1103: x48+x59-y48_59 <=1 
C1104: x49+x50-y49_50 <=1 
C1105: x49+x51 <=1 
C1106: x49+x52 <=1 
C1107: x49+x54-y49_54 <=1 
C1108: x49+x55 <=1 
C1109: x49+x58-y49_58 <=1 
C1110: x49+x59-y49_59 <=1 
C1111: x49+x60-y49_60 <=1 
C1112: x50+x51-y50_51 <=1 
C1113: x50+x53 <=1 
C1114: x50+x57 <=1 
C1115: x50+x58-y50_58 <=1 
C1116: x50+x59 <=1 
C1117: x51+x52 <=1 
C1118: x51+x54-y51_54 <=1 
C1119: x51+x56 <=1 
C1120: x51+x58 <=1 
C1121: x51+x59 <=1 
C1122: x52+x54 <=1 
C1123: x52+x58 <=1 
C1124: x52+x60-y52_60 <=1 
C1125: x53+x54 <=1 
C1126: x53+x56-y53_56 <=1 
C1127: x53+x58-y53_58 <=1 
C1128: x53+x59 <=1 
C1129: x53+x60 <=1 
C1130: x54+x55-y54_55 <=1 
C1131: x54+x56-y54_56 <=1 
C1132: x54+x57 <=1 
C1133: x54+x58 <=1 
C1134: x54+x59 <=1 
C1135: x54+x60-y54_60 <=1 
C1136: x55+x57-y55_57 <=1 
C1137: x55+x60 <=1 
C1138: x56+x58-y56_58 <=1 
C1139: x56+x60-y56_60 <=1 
C1140: x57+x58 <=1 
C1141: x58+x60-y58_60 <=1 
C1142: x59+x60-y59_60 <=1 

binary
x0
x1
x2
x3
x4
x5
x6
x7
x8
x9
x10
x11
x12
x13
x14
x15
x16
x17
x18
x19
x20
x21
x22
x23
x24
x25
x26
x27
x28
x29
x30
x31
x32
x33
x34
x35
x36
x37
x38
x39
x40
x41
x42
x43
x44
x45
x46
x47
x48
x49
x50
x51
x52
x53
x54
x55
x56
x57
x58
x59
x60
