problem_generation/data/GISP/train/er_n=61_m=1142_p=0.60_SET2_setparam=100.00_alpha=0.50_522.sol
objective value:                                 1177
x2                                                  1 	(obj:100)
x7                                                  1 	(obj:100)
x8                                                  1 	(obj:100)
x16                                                 1 	(obj:100)
x17                                                 1 	(obj:100)
x23                                                 1 	(obj:100)
x25                                                 1 	(obj:100)
x29                                                 1 	(obj:100)
x32                                                 1 	(obj:100)
x33                                                 1 	(obj:100)
x39                                                 1 	(obj:100)
x48                                                 1 	(obj:100)
y7_17                                               1 	(obj:-1)
y25_29                                              1 	(obj:-1)
y17_48                                              1 	(obj:-1)
y2_17                                               1 	(obj:-1)
y16_32                                              1 	(obj:-1)
y2_16                                               1 	(obj:-1)
y23_25                                              1 	(obj:-1)
y32_39                                              1 	(obj:-1)
y23_29                                              1 	(obj:-1)
y16_17                                              1 	(obj:-1)
y23_33                                              1 	(obj:-1)
y7_39                                               1 	(obj:-1)
y8_17                                               1 	(obj:-1)
y7_29                                               1 	(obj:-1)
y29_48                                              1 	(obj:-1)
y2_25                                               1 	(obj:-1)
y17_32                                              1 	(obj:-1)
y16_48                                              1 	(obj:-1)
y32_33                                              1 	(obj:-1)
y8_25                                               1 	(obj:-1)
y16_23                                              1 	(obj:-1)
y7_32                                               1 	(obj:-1)
y8_23                                               1 	(obj:-1)
